(set-info :smt-lib-version 2.6)
(set-logic QF_SLIA)
(set-info :source |
Generated by: Denghang Hu
Generated on: 2023-03-29
Application: Evaluate string solvers
Target solver: Ostrich, Z3str3, CVC5
Description: The instance consists of:
(1) a regular membership predicate from the real world
(2) a regular membership predicate to sanitize danger letters in javascript such as <,>,&,",'
(3) a lower bound for string length
|)
(set-info :license "https://creativecommons.org/licenses/by/4.0/")
(set-info :category "industrial")
(set-info :status unknown)
        ;test regex ^X.{0,2}[\u2E80-\u9FFF]  # \u2E80-\u9FFF matches most Chinese and Japanese characters
(declare-const X String)
(assert (str.in_re X (re.++ (str.to_re "") (re.++ (str.to_re "X") (re.++ ((_ re.loop 0 2) (re.diff re.allchar (str.to_re "\n"))) (re.++ (re.range "\u{2e80}" "\u{9fff}") (re.++ (str.to_re " ") (re.++ (str.to_re " ") (re.++ (str.to_re "#") (re.++ (str.to_re " ") (re.++ (str.to_re "\u{2e80}") (re.++ (str.to_re "-") (re.++ (str.to_re "\u{9fff}") (re.++ (str.to_re " ") (re.++ (str.to_re "m") (re.++ (str.to_re "a") (re.++ (str.to_re "t") (re.++ (str.to_re "c") (re.++ (str.to_re "h") (re.++ (str.to_re "e") (re.++ (str.to_re "s") (re.++ (str.to_re " ") (re.++ (str.to_re "m") (re.++ (str.to_re "o") (re.++ (str.to_re "s") (re.++ (str.to_re "t") (re.++ (str.to_re " ") (re.++ (str.to_re "C") (re.++ (str.to_re "h") (re.++ (str.to_re "i") (re.++ (str.to_re "n") (re.++ (str.to_re "e") (re.++ (str.to_re "s") (re.++ (str.to_re "e") (re.++ (str.to_re " ") (re.++ (str.to_re "a") (re.++ (str.to_re "n") (re.++ (str.to_re "d") (re.++ (str.to_re " ") (re.++ (str.to_re "J") (re.++ (str.to_re "a") (re.++ (str.to_re "p") (re.++ (str.to_re "a") (re.++ (str.to_re "n") (re.++ (str.to_re "e") (re.++ (str.to_re "s") (re.++ (str.to_re "e") (re.++ (str.to_re " ") (re.++ (str.to_re "c") (re.++ (str.to_re "h") (re.++ (str.to_re "a") (re.++ (str.to_re "r") (re.++ (str.to_re "a") (re.++ (str.to_re "c") (re.++ (str.to_re "t") (re.++ (str.to_re "e") (re.++ (str.to_re "r") (str.to_re "s"))))))))))))))))))))))))))))))))))))))))))))))))))))))))))
; sanitize danger characters:  < > ' " &
(assert (not (str.in_re X (re.++ re.all (re.union (str.to_re "\u{3c}") (str.to_re "\u{3e}") (str.to_re "\u{27}") (str.to_re "\u{22}") (str.to_re "\u{26}")) re.all))))
(assert (< 20 (str.len X)))
(check-sat)
(exit)
